p cnf 12 43
-2 10 11 0
1 4 7 0
9 10 -11 0
4 -6 -7 0
-3 5 8 0
2 11 -12 0
5 6 -9 0
4 6 9 0
-1 -2 -7 0
8 9 11 0
1 4 -6 0
1 11 -12 0
6 7 -12 0
-1 3 9 0
-9 -10 12 0
8 10 11 0
-3 -7 -11 0
-5 8 11 0
3 -8 10 0
3 -4 5 0
-1 -7 8 0
-2 3 8 0
5 -10 -12 0
1 -6 -10 0
1 2 -12 0
2 -4 8 0
2 3 10 0
7 -10 12 0
-5 -6 -9 0
-4 -7 -11 0
5 -10 11 0
-3 -5 8 0
-4 -5 8 0
2 -4 6 0
-3 5 -8 0
3 8 12 0
-7 -11 -12 0
-2 -6 9 0
-4 -5 7 0
-5 -7 -12 0
4 9 12 0
-6 8 10 0
-1 7 12 0
